# Solution for model MaxAlag
# Objective value = 14
SuperAlag(1,1) 1
SuperAlag(1,2) 0
SuperAlag(1,3) 0
SuperAlag(1,4) 1
SuperAlag(1,5) 0
SuperAlag(2,1) 0
SuperAlag(2,2) 0
SuperAlag(2,3) 0
SuperAlag(2,4) 1
SuperAlag(2,5) 1
TheMaxAlag 1
x(1,1,1) 0
x(2,1,1) 0
x(3,1,1) 0
x(4,1,1) 0
x(5,1,1) 0
x(6,1,1) 0
x(7,1,1) 1
x(8,1,1) 0
x(9,1,1) 0
x(10,1,1) 0
x(11,1,1) 0
x(12,1,1) 0
x(13,1,1) 0
x(14,1,1) 0
x(15,1,1) 0
x(1,1,2) 0
x(2,1,2) 0
x(3,1,2) 0
x(4,1,2) 0
x(5,1,2) 0
x(6,1,2) 0
x(7,1,2) 0
x(8,1,2) 1
x(9,1,2) 0
x(10,1,2) 1
x(11,1,2) 0
x(12,1,2) 0
x(13,1,2) 0
x(14,1,2) 0
x(15,1,2) 0
x(1,1,3) 0
x(2,1,3) 0
x(3,1,3) 0
x(4,1,3) 0
x(5,1,3) 0
x(6,1,3) 0
x(7,1,3) 0
x(8,1,3) 0
x(9,1,3) 0
x(10,1,3) 0
x(11,1,3) 0
x(12,1,3) 0
x(13,1,3) 0
x(14,1,3) 1
x(15,1,3) 0
x(1,1,4) 0
x(2,1,4) 1
x(3,1,4) 0
x(4,1,4) 0
x(5,1,4) 0
x(6,1,4) 1
x(7,1,4) 0
x(8,1,4) 0
x(9,1,4) 0
x(10,1,4) 0
x(11,1,4) 0
x(12,1,4) 0
x(13,1,4) 1
x(14,1,4) 0
x(15,1,4) 0
x(1,1,5) 1
x(2,1,5) 0
x(3,1,5) 1
x(4,1,5) 0
x(5,1,5) 0
x(6,1,5) 0
x(7,1,5) 0
x(8,1,5) 0
x(9,1,5) 0
x(10,1,5) 0
x(11,1,5) 0
x(12,1,5) 0
x(13,1,5) 0
x(14,1,5) 0
x(15,1,5) 0
x(1,2,1) 0
x(2,2,1) 0
x(3,2,1) 0
x(4,2,1) 0
x(5,2,1) 0
x(6,2,1) 0
x(7,2,1) 0
x(8,2,1) 0
x(9,2,1) 0
x(10,2,1) 0
x(11,2,1) 1
x(12,2,1) 0
x(13,2,1) 0
x(14,2,1) 0
x(15,2,1) 0
x(1,2,2) 0
x(2,2,2) 0
x(3,2,2) 0
x(4,2,2) 0
x(5,2,2) 0
x(6,2,2) 0
x(7,2,2) 0
x(8,2,2) 0
x(9,2,2) 0
x(10,2,2) 0
x(11,2,2) 0
x(12,2,2) 0
x(13,2,2) 0
x(14,2,2) 0
x(15,2,2) 1
x(1,2,3) 0
x(2,2,3) 0
x(3,2,3) 0
x(4,2,3) 1
x(5,2,3) 0
x(6,2,3) 0
x(7,2,3) 0
x(8,2,3) 0
x(9,2,3) 0
x(10,2,3) 0
x(11,2,3) 0
x(12,2,3) 0
x(13,2,3) 0
x(14,2,3) 0
x(15,2,3) 0
x(1,2,4) 0
x(2,2,4) 0
x(3,2,4) 0
x(4,2,4) 0
x(5,2,4) 1
x(6,2,4) 0
x(7,2,4) 0
x(8,2,4) 0
x(9,2,4) 0
x(10,2,4) 0
x(11,2,4) 0
x(12,2,4) 1
x(13,2,4) 0
x(14,2,4) 0
x(15,2,4) 0
x(1,2,5) 0
x(2,2,5) 0
x(3,2,5) 0
x(4,2,5) 0
x(5,2,5) 0
x(6,2,5) 0
x(7,2,5) 0
x(8,2,5) 0
x(9,2,5) 1
x(10,2,5) 0
x(11,2,5) 0
x(12,2,5) 0
x(13,2,5) 0
x(14,2,5) 0
x(15,2,5) 0
O(1) 1
O(2) 0
